TITL sh5011    P 21 21 21   R = 0.03
CELL  0.71073    8.2640    8.9010    8.9223    90.000    90.000    90.000
ZERR        4    0.0040    0.0020    0.0014     0.000     0.000     0.000
LATT  -1
SYMM     0.50000 - X ,            - Y ,    0.50000 + Z
SYMM     0.50000 + X ,    0.50000 - Y ,            - Z
SYMM             - X ,    0.50000 + Y ,    0.50000 - Z
SFAC  C  H  O
UNIT    20   48  20
LIST 6 ! automatically inserted. Change 6 to 4 for CHECKCIF!!
TEMP  -151
L.S. 5
FMAP 2
PLAN -20
ACTA
WPDB
BOND $H
CONF
TWIN
WGHT    0.033800
BASF   0.01701
FVAR       1.20868
O1    3    0.678633    0.228671    0.422011    11.00000    0.00899    0.01627 =
         0.00987    0.00088   -0.00076    0.00101
AFIX   3
H11   2    0.756103    0.243001    0.337901    11.00000   -1.50000
AFIX   0
O2    3    0.614845    0.436327    0.182646    11.00000    0.01066    0.01393 =
         0.01131   -0.00066    0.00106   -0.00341
AFIX   3
H12   2    0.652105    0.416597    0.080606    11.00000   -1.50000
AFIX   0
O3    3    0.318072    0.430960    0.039881    11.00000    0.01372    0.01207 =
         0.00890    0.00070   -0.00058    0.00064
AFIX   3
H13   2    0.326702    0.541400    0.044801    11.00000   -1.50000
AFIX   0
O4    3    0.229024    0.129518    0.108209    11.00000    0.01228    0.01052 =
         0.01125   -0.00181   -0.00167    0.00202
AFIX   3
H14   2    0.276494    0.048998    0.166499    11.00000   -1.50000
AFIX   0
O5    3   -0.088859    0.204994    0.216363    11.00000    0.00910    0.01748 =
         0.01272   -0.00182    0.00148   -0.00209
AFIX   3
H15   2   -0.118399    0.156794    0.121103    11.00000   -1.50000
AFIX   0
C1    1    0.524424    0.293755    0.390675    11.00000    0.00886    0.01563 =
         0.00866   -0.00041    0.00008    0.00070
AFIX  23
H1A   2    0.514203    0.389725    0.445954    11.00000   -1.20000
H1B   2    0.438303    0.225391    0.426697    11.00000   -1.20000
AFIX   0
C2    1    0.500647    0.322801    0.224374    11.00000    0.00812    0.01101 =
         0.00833   -0.00081   -0.00015   -0.00051
AFIX  13
H2    2    0.523836    0.228677    0.167076    11.00000   -1.20000
AFIX   0
C3    1    0.327655    0.375409    0.190052    11.00000    0.00863    0.01095 =
         0.00827   -0.00090   -0.00019    0.00036
AFIX  13
H3    2    0.300579    0.459582    0.259919    11.00000   -1.20000
AFIX   0
C4    1    0.200775    0.251746    0.210127    11.00000    0.00818    0.01140 =
         0.00832   -0.00076   -0.00024    0.00030
AFIX  13
H4    2    0.208082    0.212624    0.314972    11.00000   -1.20000
AFIX   0
C5    1    0.031827    0.314680    0.185587    11.00000    0.00843    0.01228 =
         0.01470   -0.00138   -0.00009    0.00082
AFIX  23
H5A   2    0.015388    0.402667    0.251731    11.00000   -1.20000
H5B   2    0.021155    0.348916    0.080480    11.00000   -1.20000
AFIX   0
HKLF 4
 
REM  sh5011    P 21 21 21   R = 0.03
REM R1 =  0.0253 for    8759 Fo > 4sig(Fo)  and  0.0312 for all    9942 data
REM     92 parameters refined using      0 restraints
 
END  
     
WGHT      0.0338      0.0000 

REM Highest difference peak  0.319,  deepest hole -0.303,  1-sigma level  0.059
Q1    1   0.1090  0.2924  0.1988  11.00000  0.05    0.32
Q2    1   0.4166  0.3542  0.2032  11.00000  0.05    0.31
Q3    1   0.6437  0.4579  0.2214  11.00000  0.05    0.26
Q4    1   0.7023  0.2372  0.4720  11.00000  0.05    0.26
Q5    1   0.2623  0.3130  0.2019  11.00000  0.05    0.25
Q6    1   0.5121  0.3069  0.3061  11.00000  0.05    0.25
Q7    1   0.6910  0.3641 -0.0659  11.00000  0.05    0.25
Q8    1   0.2786  0.4046  0.0041  11.00000  0.05    0.22
Q9    1  -0.0256  0.2527  0.2025  11.00000  0.05    0.21
Q10   1   0.8800  0.2047  0.2599  11.00000  0.05    0.21
Q11   1   0.2835  0.1377  0.0705  11.00000  0.05    0.21
Q12   1   0.6604  0.4222  0.1286  11.00000  0.05    0.21
Q13   1   0.5147  0.2791  0.1880  11.00000  0.05    0.21
Q14   1   0.3595  0.4190  0.0005  11.00000  0.05    0.20
Q15   1   0.7040  0.2184  0.3922  11.00000  0.05    0.20
Q16   1   0.5767  0.4783  0.1567  11.00000  0.05    0.20
Q17   1   0.3875  0.4256  0.0265  11.00000  0.05    0.20
Q18   1   0.4757  0.2728  0.4315  11.00000  0.05    0.20
Q19   1   0.7251  0.2522  0.3766  11.00000  0.05    0.19
Q20   1   0.3099  0.4962  0.0405  11.00000  0.05    0.19
